p cnf 216 1302
1 2 3 4 5 6 0
-1 -2 0
-1 -3 0
-1 -4 0
-1 -5 0
-1 -6 0
-2 -3 0
-2 -4 0
-2 -5 0
-2 -6 0
-3 -4 0
-3 -5 0
-3 -6 0
-4 -5 0
-4 -6 0
-5 -6 0
-1 37 0
-1 7 0
-2 38 0
-2 8 0
-3 39 0
-3 9 0
-4 40 0
-4 10 0
-5 41 0
-5 11 0
-6 42 0
-6 12 0
7 8 9 10 11 12 0
-7 -8 0
-7 -9 0
-7 -10 0
-7 -11 0
-7 -12 0
-8 -9 0
-8 -10 0
-8 -11 0
-8 -12 0
-9 -10 0
-9 -11 0
-9 -12 0
-10 -11 0
-10 -12 0
-11 -12 0
-7 43 1 0
-7 43 13 0
-7 1 13 0
-8 44 2 0
-8 44 14 0
-8 2 14 0
-9 45 3 0
-9 45 15 0
-9 3 15 0
-10 46 4 0
-10 46 16 0
-10 4 16 0
-11 47 5 0
-11 47 17 0
-11 5 17 0
-12 48 6 0
-12 48 18 0
-12 6 18 0
-7 -43 -1 -13 0
-8 -44 -2 -14 0
-9 -45 -3 -15 0
-10 -46 -4 -16 0
-11 -47 -5 -17 0
-12 -48 -6 -18 0
13 0
-14 0
-15 0
-16 0
-17 0
-18 0
49 7 19 0
-49 -7 0
-49 -19 0
-7 -19 0
20 0
-19 0
-21 0
-22 0
-23 0
-24 0
56 14 26 0
-56 -14 0
-56 -26 0
-14 -26 0
27 0
-25 0
-26 0
-28 0
-29 0
-30 0
63 21 33 0
-63 -21 0
-63 -33 0
-21 -33 0
31 32 33 34 35 36 0
-31 -32 0
-31 -33 0
-31 -34 0
-31 -35 0
-31 -36 0
-32 -33 0
-32 -34 0
-32 -35 0
-32 -36 0
-33 -34 0
-33 -35 0
-33 -36 0
-34 -35 0
-34 -36 0
-35 -36 0
-31 67 0
-31 25 0
-32 68 0
-32 26 0
-33 69 0
-33 27 0
-34 70 0
-34 28 0
-35 71 0
-35 29 0
-36 72 0
-36 30 0
37 0
-38 0
-39 0
-40 0
-41 0
-42 0
73 1 43 0
-73 -1 0
-73 -43 0
-1 -43 0
48 0
-43 0
-44 0
-45 0
-46 0
-47 0
84 12 54 42 0
-84 -12 0
-84 -54 0
-84 -42 0
-12 -54 0
-12 -42 0
-54 -42 0
49 50 51 52 53 54 0
-49 -50 0
-49 -51 0
-49 -52 0
-49 -53 0
-49 -54 0
-50 -51 0
-50 -52 0
-50 -53 0
-50 -54 0
-51 -52 0
-51 -53 0
-51 -54 0
-52 -53 0
-52 -54 0
-53 -54 0
-49 85 13 55 0
-49 85 13 43 0
-49 85 55 43 0
-49 13 55 43 0
-50 86 14 56 0
-50 86 14 44 0
-50 86 56 44 0
-50 14 56 44 0
-51 87 15 57 0
-51 87 15 45 0
-51 87 57 45 0
-51 15 57 45 0
-52 88 16 58 0
-52 88 16 46 0
-52 88 58 46 0
-52 16 58 46 0
-53 89 17 59 0
-53 89 17 47 0
-53 89 59 47 0
-53 17 59 47 0
-54 90 18 60 0
-54 90 18 48 0
-54 90 60 48 0
-54 18 60 48 0
-49 -85 -13 -55 0
-49 -85 -13 -43 0
-49 -85 -55 -43 0
-49 -13 -55 -43 0
-50 -86 -14 -56 0
-50 -86 -14 -44 0
-50 -86 -56 -44 0
-50 -14 -56 -44 0
-51 -87 -15 -57 0
-51 -87 -15 -45 0
-51 -87 -57 -45 0
-51 -15 -57 -45 0
-52 -88 -16 -58 0
-52 -88 -16 -46 0
-52 -88 -58 -46 0
-52 -16 -58 -46 0
-53 -89 -17 -59 0
-53 -89 -17 -47 0
-53 -89 -59 -47 0
-53 -17 -59 -47 0
-54 -90 -18 -60 0
-54 -90 -18 -48 0
-54 -90 -60 -48 0
-54 -18 -60 -48 0
55 56 57 58 59 60 0
-55 -56 0
-55 -57 0
-55 -58 0
-55 -59 0
-55 -60 0
-56 -57 0
-56 -58 0
-56 -59 0
-56 -60 0
-57 -58 0
-57 -59 0
-57 -60 0
-58 -59 0
-58 -60 0
-59 -60 0
-55 91 19 61 0
-55 91 19 49 0
-55 91 61 49 0
-55 19 61 49 0
-56 92 20 62 0
-56 92 20 50 0
-56 92 62 50 0
-56 20 62 50 0
-57 93 21 63 0
-57 93 21 51 0
-57 93 63 51 0
-57 21 63 51 0
-58 94 22 64 0
-58 94 22 52 0
-58 94 64 52 0
-58 22 64 52 0
-59 95 23 65 0
-59 95 23 53 0
-59 95 65 53 0
-59 23 65 53 0
-60 96 24 66 0
-60 96 24 54 0
-60 96 66 54 0
-60 24 66 54 0
-55 -91 -19 -61 0
-55 -91 -19 -49 0
-55 -91 -61 -49 0
-55 -19 -61 -49 0
-56 -92 -20 -62 0
-56 -92 -20 -50 0
-56 -92 -62 -50 0
-56 -20 -62 -50 0
-57 -93 -21 -63 0
-57 -93 -21 -51 0
-57 -93 -63 -51 0
-57 -21 -63 -51 0
-58 -94 -22 -64 0
-58 -94 -22 -52 0
-58 -94 -64 -52 0
-58 -22 -64 -52 0
-59 -95 -23 -65 0
-59 -95 -23 -53 0
-59 -95 -65 -53 0
-59 -23 -65 -53 0
-60 -96 -24 -66 0
-60 -96 -24 -54 0
-60 -96 -66 -54 0
-60 -24 -66 -54 0
61 62 63 64 65 66 0
-61 -62 0
-61 -63 0
-61 -64 0
-61 -65 0
-61 -66 0
-62 -63 0
-62 -64 0
-62 -65 0
-62 -66 0
-63 -64 0
-63 -65 0
-63 -66 0
-64 -65 0
-64 -66 0
-65 -66 0
-61 97 25 67 0
-61 97 25 55 0
-61 97 67 55 0
-61 25 67 55 0
-62 98 26 68 0
-62 98 26 56 0
-62 98 68 56 0
-62 26 68 56 0
-63 99 27 69 0
-63 99 27 57 0
-63 99 69 57 0
-63 27 69 57 0
-64 100 28 70 0
-64 100 28 58 0
-64 100 70 58 0
-64 28 70 58 0
-65 101 29 71 0
-65 101 29 59 0
-65 101 71 59 0
-65 29 71 59 0
-66 102 30 72 0
-66 102 30 60 0
-66 102 72 60 0
-66 30 72 60 0
-61 -97 -25 -67 0
-61 -97 -25 -55 0
-61 -97 -67 -55 0
-61 -25 -67 -55 0
-62 -98 -26 -68 0
-62 -98 -26 -56 0
-62 -98 -68 -56 0
-62 -26 -68 -56 0
-63 -99 -27 -69 0
-63 -99 -27 -57 0
-63 -99 -69 -57 0
-63 -27 -69 -57 0
-64 -100 -28 -70 0
-64 -100 -28 -58 0
-64 -100 -70 -58 0
-64 -28 -70 -58 0
-65 -101 -29 -71 0
-65 -101 -29 -59 0
-65 -101 -71 -59 0
-65 -29 -71 -59 0
-66 -102 -30 -72 0
-66 -102 -30 -60 0
-66 -102 -72 -60 0
-66 -30 -72 -60 0
67 68 69 70 71 72 0
-67 -68 0
-67 -69 0
-67 -70 0
-67 -71 0
-67 -72 0
-68 -69 0
-68 -70 0
-68 -71 0
-68 -72 0
-69 -70 0
-69 -71 0
-69 -72 0
-70 -71 0
-70 -72 0
-71 -72 0
-67 103 31 0
-67 103 61 0
-67 31 61 0
-68 104 32 0
-68 104 62 0
-68 32 62 0
-69 105 33 0
-69 105 63 0
-69 33 63 0
-70 106 34 0
-70 106 64 0
-70 34 64 0
-71 107 35 0
-71 107 65 0
-71 35 65 0
-72 108 36 0
-72 108 66 0
-72 36 66 0
-67 -103 -31 -61 0
-68 -104 -32 -62 0
-69 -105 -33 -63 0
-70 -106 -34 -64 0
-71 -107 -35 -65 0
-72 -108 -36 -66 0
76 0
-73 0
-74 0
-75 0
-77 0
-78 0
112 40 82 0
-112 -40 0
-112 -82 0
-40 -82 0
79 80 81 82 83 84 0
-79 -80 0
-79 -81 0
-79 -82 0
-79 -83 0
-79 -84 0
-80 -81 0
-80 -82 0
-80 -83 0
-80 -84 0
-81 -82 0
-81 -83 0
-81 -84 0
-82 -83 0
-82 -84 0
-83 -84 0
-79 115 43 85 0
-79 115 43 73 0
-79 115 85 73 0
-79 43 85 73 0
-80 116 44 86 0
-80 116 44 74 0
-80 116 86 74 0
-80 44 86 74 0
-81 117 45 87 0
-81 117 45 75 0
-81 117 87 75 0
-81 45 87 75 0
-82 118 46 88 0
-82 118 46 76 0
-82 118 88 76 0
-82 46 88 76 0
-83 119 47 89 0
-83 119 47 77 0
-83 119 89 77 0
-83 47 89 77 0
-84 120 48 90 0
-84 120 48 78 0
-84 120 90 78 0
-84 48 90 78 0
-79 -115 -43 -85 0
-79 -115 -43 -73 0
-79 -115 -85 -73 0
-79 -43 -85 -73 0
-80 -116 -44 -86 0
-80 -116 -44 -74 0
-80 -116 -86 -74 0
-80 -44 -86 -74 0
-81 -117 -45 -87 0
-81 -117 -45 -75 0
-81 -117 -87 -75 0
-81 -45 -87 -75 0
-82 -118 -46 -88 0
-82 -118 -46 -76 0
-82 -118 -88 -76 0
-82 -46 -88 -76 0
-83 -119 -47 -89 0
-83 -119 -47 -77 0
-83 -119 -89 -77 0
-83 -47 -89 -77 0
-84 -120 -48 -90 0
-84 -120 -48 -78 0
-84 -120 -90 -78 0
-84 -48 -90 -78 0
90 0
-85 0
-86 0
-87 0
-88 0
-89 0
126 54 96 84 0
-126 -54 0
-126 -96 0
-126 -84 0
-54 -96 0
-54 -84 0
-96 -84 0
95 0
-91 0
-92 0
-93 0
-94 0
-96 0
131 59 101 89 0
-131 -59 0
-131 -101 0
-131 -89 0
-59 -101 0
-59 -89 0
-101 -89 0
97 98 99 100 101 102 0
-97 -98 0
-97 -99 0
-97 -100 0
-97 -101 0
-97 -102 0
-98 -99 0
-98 -100 0
-98 -101 0
-98 -102 0
-99 -100 0
-99 -101 0
-99 -102 0
-100 -101 0
-100 -102 0
-101 -102 0
-97 133 61 103 0
-97 133 61 91 0
-97 133 103 91 0
-97 61 103 91 0
-98 134 62 104 0
-98 134 62 92 0
-98 134 104 92 0
-98 62 104 92 0
-99 135 63 105 0
-99 135 63 93 0
-99 135 105 93 0
-99 63 105 93 0
-100 136 64 106 0
-100 136 64 94 0
-100 136 106 94 0
-100 64 106 94 0
-101 137 65 107 0
-101 137 65 95 0
-101 137 107 95 0
-101 65 107 95 0
-102 138 66 108 0
-102 138 66 96 0
-102 138 108 96 0
-102 66 108 96 0
-97 -133 -61 -103 0
-97 -133 -61 -91 0
-97 -133 -103 -91 0
-97 -61 -103 -91 0
-98 -134 -62 -104 0
-98 -134 -62 -92 0
-98 -134 -104 -92 0
-98 -62 -104 -92 0
-99 -135 -63 -105 0
-99 -135 -63 -93 0
-99 -135 -105 -93 0
-99 -63 -105 -93 0
-100 -136 -64 -106 0
-100 -136 -64 -94 0
-100 -136 -106 -94 0
-100 -64 -106 -94 0
-101 -137 -65 -107 0
-101 -137 -65 -95 0
-101 -137 -107 -95 0
-101 -65 -107 -95 0
-102 -138 -66 -108 0
-102 -138 -66 -96 0
-102 -138 -108 -96 0
-102 -66 -108 -96 0
103 104 105 106 107 108 0
-103 -104 0
-103 -105 0
-103 -106 0
-103 -107 0
-103 -108 0
-104 -105 0
-104 -106 0
-104 -107 0
-104 -108 0
-105 -106 0
-105 -107 0
-105 -108 0
-106 -107 0
-106 -108 0
-107 -108 0
-103 139 67 0
-103 139 97 0
-103 67 97 0
-104 140 68 0
-104 140 98 0
-104 68 98 0
-105 141 69 0
-105 141 99 0
-105 69 99 0
-106 142 70 0
-106 142 100 0
-106 70 100 0
-107 143 71 0
-107 143 101 0
-107 71 101 0
-108 144 72 0
-108 144 102 0
-108 72 102 0
-103 -139 -67 -97 0
-104 -140 -68 -98 0
-105 -141 -69 -99 0
-106 -142 -70 -100 0
-107 -143 -71 -101 0
-108 -144 -72 -102 0
111 0
-109 0
-110 0
-112 0
-113 0
-114 0
147 75 117 0
-147 -75 0
-147 -117 0
-75 -117 0
115 116 117 118 119 120 0
-115 -116 0
-115 -117 0
-115 -118 0
-115 -119 0
-115 -120 0
-116 -117 0
-116 -118 0
-116 -119 0
-116 -120 0
-117 -118 0
-117 -119 0
-117 -120 0
-118 -119 0
-118 -120 0
-119 -120 0
-115 151 79 121 0
-115 151 79 109 0
-115 151 121 109 0
-115 79 121 109 0
-116 152 80 122 0
-116 152 80 110 0
-116 152 122 110 0
-116 80 122 110 0
-117 153 81 123 0
-117 153 81 111 0
-117 153 123 111 0
-117 81 123 111 0
-118 154 82 124 0
-118 154 82 112 0
-118 154 124 112 0
-118 82 124 112 0
-119 155 83 125 0
-119 155 83 113 0
-119 155 125 113 0
-119 83 125 113 0
-120 156 84 126 0
-120 156 84 114 0
-120 156 126 114 0
-120 84 126 114 0
-115 -151 -79 -121 0
-115 -151 -79 -109 0
-115 -151 -121 -109 0
-115 -79 -121 -109 0
-116 -152 -80 -122 0
-116 -152 -80 -110 0
-116 -152 -122 -110 0
-116 -80 -122 -110 0
-117 -153 -81 -123 0
-117 -153 -81 -111 0
-117 -153 -123 -111 0
-117 -81 -123 -111 0
-118 -154 -82 -124 0
-118 -154 -82 -112 0
-118 -154 -124 -112 0
-118 -82 -124 -112 0
-119 -155 -83 -125 0
-119 -155 -83 -113 0
-119 -155 -125 -113 0
-119 -83 -125 -113 0
-120 -156 -84 -126 0
-120 -156 -84 -114 0
-120 -156 -126 -114 0
-120 -84 -126 -114 0
125 0
-121 0
-122 0
-123 0
-124 0
-126 0
161 89 131 119 0
-161 -89 0
-161 -131 0
-161 -119 0
-89 -131 0
-89 -119 0
-131 -119 0
127 128 129 130 131 132 0
-127 -128 0
-127 -129 0
-127 -130 0
-127 -131 0
-127 -132 0
-128 -129 0
-128 -130 0
-128 -131 0
-128 -132 0
-129 -130 0
-129 -131 0
-129 -132 0
-130 -131 0
-130 -132 0
-131 -132 0
-127 163 91 133 0
-127 163 91 121 0
-127 163 133 121 0
-127 91 133 121 0
-128 164 92 134 0
-128 164 92 122 0
-128 164 134 122 0
-128 92 134 122 0
-129 165 93 135 0
-129 165 93 123 0
-129 165 135 123 0
-129 93 135 123 0
-130 166 94 136 0
-130 166 94 124 0
-130 166 136 124 0
-130 94 136 124 0
-131 167 95 137 0
-131 167 95 125 0
-131 167 137 125 0
-131 95 137 125 0
-132 168 96 138 0
-132 168 96 126 0
-132 168 138 126 0
-132 96 138 126 0
-127 -163 -91 -133 0
-127 -163 -91 -121 0
-127 -163 -133 -121 0
-127 -91 -133 -121 0
-128 -164 -92 -134 0
-128 -164 -92 -122 0
-128 -164 -134 -122 0
-128 -92 -134 -122 0
-129 -165 -93 -135 0
-129 -165 -93 -123 0
-129 -165 -135 -123 0
-129 -93 -135 -123 0
-130 -166 -94 -136 0
-130 -166 -94 -124 0
-130 -166 -136 -124 0
-130 -94 -136 -124 0
-131 -167 -95 -137 0
-131 -167 -95 -125 0
-131 -167 -137 -125 0
-131 -95 -137 -125 0
-132 -168 -96 -138 0
-132 -168 -96 -126 0
-132 -168 -138 -126 0
-132 -96 -138 -126 0
133 134 135 136 137 138 0
-133 -134 0
-133 -135 0
-133 -136 0
-133 -137 0
-133 -138 0
-134 -135 0
-134 -136 0
-134 -137 0
-134 -138 0
-135 -136 0
-135 -137 0
-135 -138 0
-136 -137 0
-136 -138 0
-137 -138 0
-133 169 97 139 0
-133 169 97 127 0
-133 169 139 127 0
-133 97 139 127 0
-134 170 98 140 0
-134 170 98 128 0
-134 170 140 128 0
-134 98 140 128 0
-135 171 99 141 0
-135 171 99 129 0
-135 171 141 129 0
-135 99 141 129 0
-136 172 100 142 0
-136 172 100 130 0
-136 172 142 130 0
-136 100 142 130 0
-137 173 101 143 0
-137 173 101 131 0
-137 173 143 131 0
-137 101 143 131 0
-138 174 102 144 0
-138 174 102 132 0
-138 174 144 132 0
-138 102 144 132 0
-133 -169 -97 -139 0
-133 -169 -97 -127 0
-133 -169 -139 -127 0
-133 -97 -139 -127 0
-134 -170 -98 -140 0
-134 -170 -98 -128 0
-134 -170 -140 -128 0
-134 -98 -140 -128 0
-135 -171 -99 -141 0
-135 -171 -99 -129 0
-135 -171 -141 -129 0
-135 -99 -141 -129 0
-136 -172 -100 -142 0
-136 -172 -100 -130 0
-136 -172 -142 -130 0
-136 -100 -142 -130 0
-137 -173 -101 -143 0
-137 -173 -101 -131 0
-137 -173 -143 -131 0
-137 -101 -143 -131 0
-138 -174 -102 -144 0
-138 -174 -102 -132 0
-138 -174 -144 -132 0
-138 -102 -144 -132 0
139 140 141 142 143 144 0
-139 -140 0
-139 -141 0
-139 -142 0
-139 -143 0
-139 -144 0
-140 -141 0
-140 -142 0
-140 -143 0
-140 -144 0
-141 -142 0
-141 -143 0
-141 -144 0
-142 -143 0
-142 -144 0
-143 -144 0
-139 175 103 0
-139 175 133 0
-139 103 133 0
-140 176 104 0
-140 176 134 0
-140 104 134 0
-141 177 105 0
-141 177 135 0
-141 105 135 0
-142 178 106 0
-142 178 136 0
-142 106 136 0
-143 179 107 0
-143 179 137 0
-143 107 137 0
-144 180 108 0
-144 180 138 0
-144 108 138 0
-139 -175 -103 -133 0
-140 -176 -104 -134 0
-141 -177 -105 -135 0
-142 -178 -106 -136 0
-143 -179 -107 -137 0
-144 -180 -108 -138 0
145 146 147 148 149 150 0
-145 -146 0
-145 -147 0
-145 -148 0
-145 -149 0
-145 -150 0
-146 -147 0
-146 -148 0
-146 -149 0
-146 -150 0
-147 -148 0
-147 -149 0
-147 -150 0
-148 -149 0
-148 -150 0
-149 -150 0
-145 181 109 0
-145 181 151 0
-145 109 151 0
-146 182 110 0
-146 182 152 0
-146 110 152 0
-147 183 111 0
-147 183 153 0
-147 111 153 0
-148 184 112 0
-148 184 154 0
-148 112 154 0
-149 185 113 0
-149 185 155 0
-149 113 155 0
-150 186 114 0
-150 186 156 0
-150 114 156 0
-145 -181 -109 -151 0
-146 -182 -110 -152 0
-147 -183 -111 -153 0
-148 -184 -112 -154 0
-149 -185 -113 -155 0
-150 -186 -114 -156 0
151 152 153 154 155 156 0
-151 -152 0
-151 -153 0
-151 -154 0
-151 -155 0
-151 -156 0
-152 -153 0
-152 -154 0
-152 -155 0
-152 -156 0
-153 -154 0
-153 -155 0
-153 -156 0
-154 -155 0
-154 -156 0
-155 -156 0
-151 187 115 157 0
-151 187 115 145 0
-151 187 157 145 0
-151 115 157 145 0
-152 188 116 158 0
-152 188 116 146 0
-152 188 158 146 0
-152 116 158 146 0
-153 189 117 159 0
-153 189 117 147 0
-153 189 159 147 0
-153 117 159 147 0
-154 190 118 160 0
-154 190 118 148 0
-154 190 160 148 0
-154 118 160 148 0
-155 191 119 161 0
-155 191 119 149 0
-155 191 161 149 0
-155 119 161 149 0
-156 192 120 162 0
-156 192 120 150 0
-156 192 162 150 0
-156 120 162 150 0
-151 -187 -115 -157 0
-151 -187 -115 -145 0
-151 -187 -157 -145 0
-151 -115 -157 -145 0
-152 -188 -116 -158 0
-152 -188 -116 -146 0
-152 -188 -158 -146 0
-152 -116 -158 -146 0
-153 -189 -117 -159 0
-153 -189 -117 -147 0
-153 -189 -159 -147 0
-153 -117 -159 -147 0
-154 -190 -118 -160 0
-154 -190 -118 -148 0
-154 -190 -160 -148 0
-154 -118 -160 -148 0
-155 -191 -119 -161 0
-155 -191 -119 -149 0
-155 -191 -161 -149 0
-155 -119 -161 -149 0
-156 -192 -120 -162 0
-156 -192 -120 -150 0
-156 -192 -162 -150 0
-156 -120 -162 -150 0
157 158 159 160 161 162 0
-157 -158 0
-157 -159 0
-157 -160 0
-157 -161 0
-157 -162 0
-158 -159 0
-158 -160 0
-158 -161 0
-158 -162 0
-159 -160 0
-159 -161 0
-159 -162 0
-160 -161 0
-160 -162 0
-161 -162 0
-157 193 121 163 0
-157 193 121 151 0
-157 193 163 151 0
-157 121 163 151 0
-158 194 122 164 0
-158 194 122 152 0
-158 194 164 152 0
-158 122 164 152 0
-159 195 123 165 0
-159 195 123 153 0
-159 195 165 153 0
-159 123 165 153 0
-160 196 124 166 0
-160 196 124 154 0
-160 196 166 154 0
-160 124 166 154 0
-161 197 125 167 0
-161 197 125 155 0
-161 197 167 155 0
-161 125 167 155 0
-162 198 126 168 0
-162 198 126 156 0
-162 198 168 156 0
-162 126 168 156 0
-157 -193 -121 -163 0
-157 -193 -121 -151 0
-157 -193 -163 -151 0
-157 -121 -163 -151 0
-158 -194 -122 -164 0
-158 -194 -122 -152 0
-158 -194 -164 -152 0
-158 -122 -164 -152 0
-159 -195 -123 -165 0
-159 -195 -123 -153 0
-159 -195 -165 -153 0
-159 -123 -165 -153 0
-160 -196 -124 -166 0
-160 -196 -124 -154 0
-160 -196 -166 -154 0
-160 -124 -166 -154 0
-161 -197 -125 -167 0
-161 -197 -125 -155 0
-161 -197 -167 -155 0
-161 -125 -167 -155 0
-162 -198 -126 -168 0
-162 -198 -126 -156 0
-162 -198 -168 -156 0
-162 -126 -168 -156 0
166 0
-163 0
-164 0
-165 0
-167 0
-168 0
202 130 172 160 0
-202 -130 0
-202 -172 0
-202 -160 0
-130 -172 0
-130 -160 0
-172 -160 0
170 0
-169 0
-171 0
-172 0
-173 0
-174 0
206 134 176 164 0
-206 -134 0
-206 -176 0
-206 -164 0
-134 -176 0
-134 -164 0
-176 -164 0
175 176 177 178 179 180 0
-175 -176 0
-175 -177 0
-175 -178 0
-175 -179 0
-175 -180 0
-176 -177 0
-176 -178 0
-176 -179 0
-176 -180 0
-177 -178 0
-177 -179 0
-177 -180 0
-178 -179 0
-178 -180 0
-179 -180 0
-175 211 139 0
-175 211 169 0
-175 139 169 0
-176 212 140 0
-176 212 170 0
-176 140 170 0
-177 213 141 0
-177 213 171 0
-177 141 171 0
-178 214 142 0
-178 214 172 0
-178 142 172 0
-179 215 143 0
-179 215 173 0
-179 143 173 0
-180 216 144 0
-180 216 174 0
-180 144 174 0
-175 -211 -139 -169 0
-176 -212 -140 -170 0
-177 -213 -141 -171 0
-178 -214 -142 -172 0
-179 -215 -143 -173 0
-180 -216 -144 -174 0
181 182 183 184 185 186 0
-181 -182 0
-181 -183 0
-181 -184 0
-181 -185 0
-181 -186 0
-182 -183 0
-182 -184 0
-182 -185 0
-182 -186 0
-183 -184 0
-183 -185 0
-183 -186 0
-184 -185 0
-184 -186 0
-185 -186 0
-181 145 0
-181 187 0
-182 146 0
-182 188 0
-183 147 0
-183 189 0
-184 148 0
-184 190 0
-185 149 0
-185 191 0
-186 150 0
-186 192 0
187 188 189 190 191 192 0
-187 -188 0
-187 -189 0
-187 -190 0
-187 -191 0
-187 -192 0
-188 -189 0
-188 -190 0
-188 -191 0
-188 -192 0
-189 -190 0
-189 -191 0
-189 -192 0
-190 -191 0
-190 -192 0
-191 -192 0
-187 181 151 0
-187 151 193 0
-187 181 193 0
-188 182 152 0
-188 152 194 0
-188 182 194 0
-189 183 153 0
-189 153 195 0
-189 183 195 0
-190 184 154 0
-190 154 196 0
-190 184 196 0
-191 185 155 0
-191 155 197 0
-191 185 197 0
-192 186 156 0
-192 156 198 0
-192 186 198 0
-187 -151 -181 -193 0
-188 -152 -182 -194 0
-189 -153 -183 -195 0
-190 -154 -184 -196 0
-191 -155 -185 -197 0
-192 -156 -186 -198 0
193 194 195 196 197 198 0
-193 -194 0
-193 -195 0
-193 -196 0
-193 -197 0
-193 -198 0
-194 -195 0
-194 -196 0
-194 -197 0
-194 -198 0
-195 -196 0
-195 -197 0
-195 -198 0
-196 -197 0
-196 -198 0
-197 -198 0
-193 187 157 0
-193 157 199 0
-193 187 199 0
-194 188 158 0
-194 158 200 0
-194 188 200 0
-195 189 159 0
-195 159 201 0
-195 189 201 0
-196 190 160 0
-196 160 202 0
-196 190 202 0
-197 191 161 0
-197 161 203 0
-197 191 203 0
-198 192 162 0
-198 162 204 0
-198 192 204 0
-193 -157 -187 -199 0
-194 -158 -188 -200 0
-195 -159 -189 -201 0
-196 -160 -190 -202 0
-197 -161 -191 -203 0
-198 -162 -192 -204 0
199 200 201 202 203 204 0
-199 -200 0
-199 -201 0
-199 -202 0
-199 -203 0
-199 -204 0
-200 -201 0
-200 -202 0
-200 -203 0
-200 -204 0
-201 -202 0
-201 -203 0
-201 -204 0
-202 -203 0
-202 -204 0
-203 -204 0
-199 193 163 0
-199 163 205 0
-199 193 205 0
-200 194 164 0
-200 164 206 0
-200 194 206 0
-201 195 165 0
-201 165 207 0
-201 195 207 0
-202 196 166 0
-202 166 208 0
-202 196 208 0
-203 197 167 0
-203 167 209 0
-203 197 209 0
-204 198 168 0
-204 168 210 0
-204 198 210 0
-199 -163 -193 -205 0
-200 -164 -194 -206 0
-201 -165 -195 -207 0
-202 -166 -196 -208 0
-203 -167 -197 -209 0
-204 -168 -198 -210 0
205 206 207 208 209 210 0
-205 -206 0
-205 -207 0
-205 -208 0
-205 -209 0
-205 -210 0
-206 -207 0
-206 -208 0
-206 -209 0
-206 -210 0
-207 -208 0
-207 -209 0
-207 -210 0
-208 -209 0
-208 -210 0
-209 -210 0
-205 199 169 0
-205 169 211 0
-205 199 211 0
-206 200 170 0
-206 170 212 0
-206 200 212 0
-207 201 171 0
-207 171 213 0
-207 201 213 0
-208 202 172 0
-208 172 214 0
-208 202 214 0
-209 203 173 0
-209 173 215 0
-209 203 215 0
-210 204 174 0
-210 174 216 0
-210 204 216 0
-205 -169 -199 -211 0
-206 -170 -200 -212 0
-207 -171 -201 -213 0
-208 -172 -202 -214 0
-209 -173 -203 -215 0
-210 -174 -204 -216 0
211 212 213 214 215 216 0
-211 -212 0
-211 -213 0
-211 -214 0
-211 -215 0
-211 -216 0
-212 -213 0
-212 -214 0
-212 -215 0
-212 -216 0
-213 -214 0
-213 -215 0
-213 -216 0
-214 -215 0
-214 -216 0
-215 -216 0
-211 175 0
-211 205 0
-212 176 0
-212 206 0
-213 177 0
-213 207 0
-214 178 0
-214 208 0
-215 179 0
-215 209 0
-216 180 0
-216 210 0
7 79 115 151 187 0
50 56 62 68 0
80 98 104 0
116 128 134 140 0
51 57 63 69 0
81 99 105 0
9 81 117 153 189 0
51 159 195 0
57 129 201 0
118 130 136 142 0
10 82 118 154 190 0
52 160 196 0